(assert (forall ((pkt_0_4_6_0  Int  )(state_group_0_state_0_5_7_0  Int  )(state_group_0_state_1_6_8_0  Int  )) (let ((_n0 state_group_0_state_1_6_8_0 ))
(let ((_n1 state_group_0_state_0_5_7_0 ))
(let ((_n2 true ))
(let ((_n3 (+   _n1   (ite  _n2  1 0) ) ))
(let ((_n4 (ite (=  _n0  0)  _n3   _n1  ) ))
(let ((_n5 2 ))
(let ((_n6 pkt_0_4_6_0 ))
(let ((_n7 (+   _n1   _n6 ) ))
(let ((_n8 (<   _n7   _n5 ) ))
(let ((_n9 false ))
(let ((_n10 (ite  _n8   (ite  _n9  1 0)   _n0  ) ))
(let ((_n11 (=   _n10   (ite  _n9  1 0) ) ))
(let ((_n12 (ite  _n8   _n9   _n11  ) ))
(let ((_n13 1000 ))
(let ((_n14 (not  _n12 ) ))
(let ((_n15 (or   _n14   _n8 ) ))
(let ((_n16 (ite  _n15   (ite  _n9  1 0)   _n6  ) ))
(let ((_n17 (ite  _n15   (ite  _n9  1 0)   _n1  ) ))
(let ((_n18 (+   _n17   _n16 ) ))
(let ((_n19 (=   _n18   _n13 ) ))
(let ((_n20 (not  _n19 ) ))
(let ((_n21 (not  _n15 ) ))
(let ((_n22 (and   _n21   _n20 ) ))
(let ((_n23 (or   _n22   _n15 ) ))
(let ((_n24 (ite  _n23   (ite  _n9  1 0)   _n6  ) ))
(let ((_n25 (+   _n1   _n24 ) ))
(let ((_n26 (not  _n22 ) ))
(let ((_n27 (or   _n26   _n15 ) ))
(let ((_n28 (not  _n27 ) ))
(let ((_n29 (+   _n1   (ite  _n28  1 0) ) ))
(let ((_n30 (ite (=  (ite  _n22  1 0)  1)  _n29   _n25  ) ))
(let ((_n31 (ite (=  (ite  _n12  1 0)  1)  _n30   _n1  ) ))
(let ((_n32 (ite  _n8   _n0   (ite  _n9  1 0)  ) ))
(let ((_n33 (<   _n32   (ite  _n2  1 0) ) ))
(let ((_n34 (and   _n8   _n33 ) ))
(let ((_n35 (and   _n34   _n8 ) ))
(let ((_n36 (+   _n1   (ite  _n35  1 0) ) ))
(let ((_n37 (ite (=  (ite  _n34  1 0)  1)  _n36   _n1  ) ))
(let ((_n38 (ite (=  (ite  _n8  1 0)  1)  _n37   _n31  ) ))
(let ((_n39 (=   _n38   _n4 ) ))
(let ((_n41 (ite (=  _n1  999)  (ite  _n2  1 0)   _n0  ) ))
(let ((_n42 (ite (=  _n0  0)  _n41   _n0  ) ))
(let ((_n43 (+   _n0   _n24 ) ))
(let ((_n44 (ite (=  (ite  _n22  1 0)  1)  _n0   _n43  ) ))
(let ((_n45 (ite (=  (ite  _n12  1 0)  1)  _n44   _n0  ) ))
(let ((_n46 (ite (=  (ite  _n8  1 0)  1)  _n0   _n45  ) ))
(let ((_n47 (=   _n46   _n42 ) ))
(let ((_n49 (ite (=  _n6  0)  _n6   (ite  _n9  1 0)  ) ))
(let ((_n50 (ite (=  _n6  0)  _n49   _n6  ) ))
(let ((_n51 (=   _n50   _n6 ) ))
(implies  (and (and (>= state_group_0_state_1_6_8_0 0) (< state_group_0_state_1_6_8_0 1024 ))  (and (and (>= state_group_0_state_0_5_7_0 0) (< state_group_0_state_0_5_7_0 1024 ))  (and (>= pkt_0_4_6_0 0) (< pkt_0_4_6_0 1024 )) ) )   (and  _n39  _n47  _n51 )  )))))))))))))))))))))))))))))))))))))))))))))))))))))
(check-sat)
(get-model)
(exit)